Ni O4 W
   1.00000000000000
     9.1834066448069809   -0.0001042517093396    0.0482646136751088
    -0.0000645340613704    5.7053873484069157   -0.0000378792921053
    -0.0317495046683696   -0.0000325069860961    4.9550274057960753
   Ni   O    W
     4    16     4
Direct
  0.2499982358452038  0.6533390724965654  0.2499992431856344
  0.7499971827029098  0.6533439666666904  0.2499924632814161
  0.2500002825566691  0.3466588699180825  0.7499981160238921
  0.7499981180904818  0.3466716031796159  0.7499980287496131
  0.1109873680928355  0.1097182708662342  0.9288535320090638
  0.6109916511046053  0.1097461953573800  0.9288319666082171
  0.3890113929926535  0.8902474514928573  0.0711697180153358
  0.8890128389097183  0.8902446231169319  0.0711337603753502
  0.3890134330572429  0.1097186871171887  0.5711612949374100
  0.8889983540926296  0.1097519098835971  0.5711550833213631
  0.1109857291280831  0.8902883557929951  0.4288617723099041
  0.6109943818237070  0.8902547337042913  0.4288412817687315
  0.1305620142743154  0.3779960460243658  0.4061317382189686
  0.6305636150126591  0.3779794883539885  0.4061261330065944
  0.3694544869150053  0.6220093545743903  0.5938832129040832
  0.8694408588525075  0.6220253875284506  0.5938683694839499
  0.3694561925977012  0.3779829924685280  0.0938677584553832
  0.8694377382865071  0.3779810463313258  0.0938764122839979
  0.1305407989542050  0.6220069421609592  0.9061156680323135
  0.6305587290379806  0.6220285508542607  0.9061126844680422
 -0.0000081328460377  0.1768954312963438  0.2500129657688221
  0.5000034207699052  0.1768804593907684  0.2499969042983095
 -0.0000014641737460  0.8231119143950378  0.7500238663247698
  0.5000027739222579  0.8231187990291499  0.7499880561688573
