System  = NiWO4

ISPIN = 1
LORBIT = 11
EDIFF = 1.0e-5
NELM = 400
ISYM = 2

ISMEAR = -5; SIGMA = 0.10
EDIFFG = -0.0010
IBRION = 2
NSW = 200
POTIM = 0.5
ISIF = 3

LMAXMIX= 4

ENCUT = 500
NEDOS = 2001
