Ni O4 W
1.0
        4.5991997719         0.0000000000         0.0000000000
        0.0000000000         5.6606001854         0.0000000000
       -0.0025690897         0.0000000000         4.9067991207
   Ni    O    W
    2    8    2
Direct
     0.500000000         0.661599994         0.250000000
     0.500000000         0.338400006         0.750000000
     0.224099994         0.110500000         0.920400023
     0.775900006         0.889500022         0.079599977
     0.775900006         0.110500000         0.579599977
     0.224099994         0.889500022         0.420400023
     0.264400005         0.377200007         0.395300001
     0.735599995         0.622799993         0.604699969
     0.735599995         0.377200007         0.104699999
     0.264400005         0.622799993         0.895300031
     0.000000000         0.178599998         0.250000000
     0.000000000         0.821399987         0.750000000
